sat
(:added-eqs                       6840
 :arith-eq-adapter                347
 :arith-bound-propagations-lp     143
 :arith-branch                    4
 :arith-conflicts                 966
 :arith-diseq                     418
 :arith-fixed-eqs                 456
 :arith-gcd-calls                 78
 :arith-gomory-cuts               2
 :arith-grobner-calls             71
 :arith-grobner-conflicts         56
 :arith-horner-calls              14
 :arith-horner-conflicts          1
 :arith-horner-cross-nested-forms 11253
 :arith-lower                     1327
 :arith-make-feasible             2142
 :arith-max-columns               1720
 :arith-max-rows                  727
 :arith-nla-add-bounds            3
 :arith-nla-lemmas                316
 :arith-nla-propagate-bounds      552
 :arith-nla-propagate-eq          7590
 :arith-nra-calls                 22
 :arith-offset-eqs                1191
 :arith-patches                   78
 :arith-patches-success           71
 :arith-upper                     2727
 :binary-propagations             1298
 :cnf-encoding-aux-vars           28
 :conflicts                       148
 :decisions                       3168
 :del-clause                      494
 :elim-unconstrained              23
 :final-checks                    212
 :max-memory                      110.76
 :memory                          58.17
 :minimized-lits                  125
 :mk-bool-var                     3176
 :mk-clause                       1065
 :mk-clause-binary                8136
 :nlsat-conflicts                 2113
 :nlsat-decisions                 478
 :nlsat-propagations              147412
 :nlsat-restarts                  5
 :nlsat-stages                    102777
 :num-allocs                      1939326204
 :num-checks                      1
 :propagations                    3046
 :restarts                        1
 :rlimit-count                    2891363
 :sat-mk-clause-2ary              132847
 :sat-mk-clause-nary              197268
 :sat-mk-var                      94888
 :sls-arith-moves                 2467
 :sls-ddfw-flips                  7919.00
 :sls-ddfw-shifts                 3.00
 :solve-eqs-elim-vars             147
 :solve-eqs-steps                 2446
 :time                            3.12
 :total-time                      1.77)
